
Gurobi 7.0.2 (linux64) logging started Mon Jun 12 13:07:32 2017

Changed value of parameter logfile to result/NEIS-20170612T0949/scenario_100000PVS30PVWE10var-cost0000.log
   Prev: gurobi.log  Default: 
Optimize a model with 1059933 rows, 937229 columns and 3961670 nonzeros
Coefficient statistics:
  Matrix range     [8e-04, 1e+05]
  Objective range  [1e+00, 1e+00]
  Bounds range     [0e+00, 0e+00]
  RHS range        [3e-03, 1e+05]

Concurrent LP optimizer: primal simplex, dual simplex, and barrier
Showing barrier log only...

Presolve removed 594694 rows and 643281 columns
Presolve time: 2.72s
Presolved: 465239 rows, 293948 columns, 1347043 nonzeros

Ordering time: 0.40s

Barrier statistics:
 Dense cols : 21
 AA' NZ     : 1.881e+06
 Factor NZ  : 6.959e+06 (roughly 400 MBytes of memory)
 Factor Ops : 1.640e+08 (less than 1 second per iteration)
 Threads    : 22

                  Objective                Residual
Iter       Primal          Dual         Primal    Dual     Compl     Time
   0   3.86333915e+11 -2.66735686e+11  9.53e+02 6.93e+03  2.20e+07     4s
   1   3.05937540e+11 -9.70947080e+10  7.05e+02 1.33e+04  7.03e+06     5s
   2   2.98690467e+11 -6.89210670e+10  6.91e+02 8.97e+03  5.68e+06     5s
   3   2.08166253e+11 -1.16869962e+11  4.79e+02 1.94e+03  5.33e+06     6s
   4   3.84624732e+10 -1.14216114e+11  6.30e+01 1.66e+02  8.44e+05     7s
   5   3.99974431e+09 -5.91801346e+10  5.17e+00 3.16e+00  1.26e+05     7s
   6   5.23648254e+08 -1.61091991e+10  3.19e-01 1.33e-05  2.42e+04     7s
   7   2.50768660e+08 -2.38001331e+09  4.75e-02 2.05e-06  3.67e+03     8s
   8   1.40148812e+08 -1.01983763e+09  9.63e-03 8.56e-07  1.61e+03     8s
   9   8.69200793e+07 -1.40792403e+08  8.20e-04 1.40e-07  3.15e+02     9s
  10   8.43230463e+07 -2.13389000e+07  7.69e-04 5.99e-08  1.46e+02    10s
  11   5.79633434e+07 -1.63677790e+07  4.78e-04 4.85e-08  1.03e+02    10s
  12   4.85565857e+07 -1.48597116e+07  3.66e-04 4.98e-08  8.76e+01    11s
  13   4.35850580e+07  1.69160936e+06  3.01e-04 2.71e-08  5.79e+01    11s
  14   2.55605785e+07  8.50236922e+06  1.20e-04 6.30e-09  2.36e+01    12s
  15   2.42343586e+07  9.96319368e+06  1.07e-04 3.96e-09  1.97e+01    12s
  16   2.02412675e+07  1.13048672e+07  7.05e-05 1.38e-09  1.23e+01    13s
  17   1.84001808e+07  1.19378687e+07  5.39e-05 3.67e-09  8.92e+00    13s
  18   1.67137651e+07  1.22610482e+07  3.66e-05 5.82e-09  6.15e+00    14s
  19   1.58232579e+07  1.24753164e+07  2.73e-05 5.82e-10  4.62e+00    14s
  20   1.52599152e+07  1.26196201e+07  2.13e-05 4.07e-09  3.65e+00    15s
  21   1.48774647e+07  1.27230670e+07  1.72e-05 2.79e-09  2.98e+00    15s
  22   1.44774916e+07  1.29120274e+07  1.31e-05 5.18e-09  2.16e+00    16s
  23   1.41893018e+07  1.29789659e+07  9.97e-06 8.56e-09  1.67e+00    16s
  24   1.38619660e+07  1.30629591e+07  6.49e-06 1.22e-08  1.10e+00    17s
  25   1.36977329e+07  1.31178649e+07  4.82e-06 1.08e-08  8.01e-01    18s
  26   1.36039028e+07  1.31421586e+07  3.83e-06 1.12e-08  6.38e-01    18s
  27   1.35400778e+07  1.31603095e+07  3.14e-06 1.19e-08  5.24e-01    19s
  28   1.34925808e+07  1.31765604e+07  2.62e-06 1.55e-08  4.36e-01    19s
  29   1.34325049e+07  1.31843386e+07  1.98e-06 1.53e-08  3.43e-01    19s
  30   1.33887623e+07  1.32071242e+07  1.51e-06 1.61e-08  2.51e-01    20s
  31   1.33580357e+07  1.32131718e+07  1.19e-06 1.46e-08  2.00e-01    20s
  32   1.33243314e+07  1.32191987e+07  8.63e-07 7.80e-09  1.45e-01    21s
  33   1.32990348e+07  1.32240370e+07  5.98e-07 6.81e-09  1.04e-01    22s
  34   1.32896105e+07  1.32281649e+07  5.06e-07 4.83e-09  8.49e-02    22s
  35   1.32797648e+07  1.32305449e+07  4.00e-07 9.31e-09  6.80e-02    23s
  36   1.32750710e+07  1.32318555e+07  3.49e-07 6.98e-09  5.97e-02    23s
  37   1.32716343e+07  1.32330669e+07  3.12e-07 4.60e-09  5.33e-02    24s
  38   1.32653712e+07  1.32346741e+07  2.50e-07 3.73e-09  4.24e-02    24s
  39   1.32619869e+07  1.32360260e+07  2.13e-07 6.98e-09  3.59e-02    25s
  40   1.32580367e+07  1.32371782e+07  1.71e-07 1.36e-08  2.88e-02    25s
  41   1.32532169e+07  1.32377020e+07  1.25e-07 1.05e-08  2.14e-02    26s
  42   1.32515475e+07  1.32388953e+07  1.07e-07 8.79e-09  1.75e-02    27s
  43   1.32495931e+07  1.32392033e+07  8.51e-08 6.40e-09  1.43e-02    27s
  44   1.32476141e+07  1.32397659e+07  6.34e-08 7.10e-09  1.08e-02    27s
  45   1.32465188e+07  1.32401403e+07  5.15e-08 8.44e-09  8.81e-03    28s
  46   1.32461937e+07  1.32402403e+07  4.83e-08 9.66e-09  8.22e-03    29s
  47   1.32459390e+07  1.32402854e+07  4.55e-08 8.61e-09  7.81e-03    29s
  48   1.32448175e+07  1.32406035e+07  3.47e-08 3.28e-09  5.82e-03    30s
  49   1.32442394e+07  1.32407788e+07  2.89e-08 2.53e-09  4.78e-03    30s
  50   1.32439507e+07  1.32408886e+07  2.58e-08 2.10e-09  4.23e-03    31s
  51   1.32437324e+07  1.32409254e+07  2.34e-08 2.23e-09  3.88e-03    31s
  52   1.32436803e+07  1.32409484e+07  2.28e-08 1.96e-09  3.77e-03    32s
  53   1.32434821e+07  1.32410079e+07  2.06e-08 2.24e-09  3.42e-03    32s
  54   1.32431927e+07  1.32410816e+07  1.76e-08 3.18e-09  2.92e-03    33s
  55   1.32431205e+07  1.32411308e+07  1.67e-08 1.04e-08  2.75e-03    33s
  56   1.32430421e+07  1.32411691e+07  1.59e-08 1.19e-08  2.59e-03    34s
  57   1.32430233e+07  1.32412142e+07  1.57e-08 1.26e-08  2.50e-03    34s
  58   1.32426192e+07  1.32412689e+07  1.13e-08 1.91e-08  1.86e-03    35s
  59   1.32425388e+07  1.32413347e+07  1.04e-08 3.41e-08  1.66e-03    35s
  60   1.32424720e+07  1.32413710e+07  9.61e-09 4.09e-08  1.52e-03    36s
  61   1.32423496e+07  1.32413965e+07  8.26e-09 4.76e-08  1.32e-03    36s
  62   1.32422860e+07  1.32414436e+07  7.54e-09 5.49e-08  1.16e-03    37s
  63   1.32422420e+07  1.32414636e+07  7.08e-09 4.38e-08  1.07e-03    38s
  64   1.32421605e+07  1.32414742e+07  6.20e-09 5.18e-08  9.48e-04    38s
  65   1.32420933e+07  1.32414797e+07  5.45e-09 4.66e-08  8.47e-04    39s
  66   1.32419782e+07  1.32414929e+07  4.17e-09 3.60e-08  6.70e-04    39s
  67   1.32418765e+07  1.32415299e+07  3.17e-09 8.30e-09  4.79e-04    40s
  68   1.32418169e+07  1.32415444e+07  2.48e-09 1.16e-08  3.76e-04    40s
  69   1.32417443e+07  1.32415628e+07  1.64e-09 5.11e-09  2.51e-04    41s
  70   1.32416810e+07  1.32415735e+07  8.88e-10 3.10e-09  1.48e-04    42s
  71   1.32416631e+07  1.32415809e+07  7.04e-10 2.21e-09  1.13e-04    43s
  72   1.32416581e+07  1.32415831e+07  1.13e-08 6.25e-09  1.04e-04    44s
  73   1.32416544e+07  1.32415849e+07  6.13e-07 9.47e-09  9.59e-05    44s
  74   1.32416336e+07  1.32415891e+07  9.31e-07 4.16e-08  6.14e-05    45s
  75   1.32416132e+07  1.32415943e+07  3.75e-07 1.71e-07  2.60e-05    45s
  76   1.32416132e+07  1.32415943e+07  6.23e-07 1.70e-07  2.60e-05    46s
  77   1.32416124e+07  1.32415950e+07  5.91e-07 1.35e-07  2.41e-05    47s
  78   1.32416123e+07  1.32415950e+07  1.05e-06 4.07e-10  2.39e-05    48s
  79   1.32416123e+07  1.32415950e+07  1.05e-06 5.53e-10  2.39e-05    49s
  80   1.32416123e+07  1.32415950e+07  1.05e-06 1.46e-09  2.39e-05    49s
  81   6.63237783e+11 -2.66735686e+11  2.34e+03 6.93e+03  5.31e+07    51s
  82   4.93949461e+11 -3.67930698e+11  1.53e+03 1.64e+03  1.45e+07    53s
  83   5.96613009e+10 -1.56576011e+11  8.18e+00 2.38e+01  3.62e+05    54s
  84   1.35919544e+09 -1.12617738e+10  7.77e-02 3.96e-04  1.76e+04    55s
  85   1.63045599e+08 -5.03509170e+08  5.92e-04 1.10e-05  9.21e+02    56s
  86   8.43097713e+07 -5.00502423e+07  1.50e-04 1.39e-06  1.86e+02    57s
  87   8.00503460e+07 -4.47351755e+07  1.25e-04 1.32e-06  1.72e+02    58s
  88   3.50463413e+07 -1.91316606e+07  2.89e-05 7.85e-07  7.48e+01    59s
  89   2.55661974e+07  2.48907494e+06  1.46e-05 2.51e-07  3.19e+01    59s
  90   2.15092497e+07  7.32502237e+06  9.56e-06 1.23e-07  1.96e+01    60s
  91   1.87494685e+07  9.44213757e+06  6.25e-06 7.81e-08  1.29e+01    60s
  92   1.68964470e+07  1.10938018e+07  4.07e-06 4.32e-08  8.01e+00    61s
  93   1.59827941e+07  1.17293226e+07  3.04e-06 2.97e-08  5.87e+00    61s
  94   1.56947159e+07  1.21172520e+07  2.72e-06 2.14e-08  4.94e+00    62s
  95   1.48986482e+07  1.23245460e+07  1.77e-06 1.74e-08  3.55e+00    62s
  96   1.48146422e+07  1.24324433e+07  1.67e-06 1.52e-08  3.29e+00    62s
  97   1.43101094e+07  1.25067054e+07  1.14e-06 1.36e-08  2.49e+00    63s
  98   1.42218526e+07  1.26296002e+07  1.06e-06 9.96e-09  2.20e+00    63s
  99   1.39550264e+07  1.27875823e+07  7.66e-07 7.29e-09  1.61e+00    64s
 100   1.37630186e+07  1.28947237e+07  5.52e-07 5.53e-09  1.20e+00    64s
 101   1.36094960e+07  1.29829521e+07  3.82e-07 4.02e-09  8.65e-01    65s
 102   1.35128279e+07  1.30499048e+07  2.78e-07 8.79e-09  6.39e-01    65s
 103   1.34279963e+07  1.30931889e+07  1.88e-07 9.31e-09  4.62e-01    65s
 104   1.33797728e+07  1.31230091e+07  1.37e-07 1.51e-08  3.55e-01    66s
 105   1.33383203e+07  1.31601256e+07  9.43e-08 1.26e-08  2.46e-01    66s
 106   1.33079172e+07  1.31783844e+07  6.35e-08 1.12e-08  1.79e-01    67s
 107   1.32906205e+07  1.31912191e+07  4.62e-08 1.48e-08  1.37e-01    67s
 108   1.32832073e+07  1.32039069e+07  3.89e-08 1.05e-08  1.10e-01    68s
 109   1.32731292e+07  1.32149197e+07  2.92e-08 1.30e-08  8.04e-02    68s
 110   1.32674397e+07  1.32191187e+07  2.38e-08 8.73e-09  6.67e-02    69s
 111   1.32645028e+07  1.32247217e+07  2.10e-08 9.49e-09  5.49e-02    69s
 112   1.32606649e+07  1.32287241e+07  1.74e-08 5.36e-09  4.41e-02    69s
 113   1.32577941e+07  1.32306537e+07  1.46e-08 4.83e-09  3.75e-02    70s
 114   1.32538478e+07  1.32335486e+07  1.10e-08 5.76e-09  2.80e-02    70s
 115   1.32510095e+07  1.32356938e+07  8.34e-09 6.75e-09  2.11e-02    71s
 116   1.32492915e+07  1.32370758e+07  6.82e-09 1.34e-08  1.69e-02    71s
 117   1.32471973e+07  1.32374143e+07  4.90e-09 1.07e-08  1.35e-02    72s
 118   1.32463709e+07  1.32384405e+07  4.16e-09 1.29e-08  1.10e-02    72s
 119   1.32454573e+07  1.32390096e+07  3.34e-09 1.43e-08  8.90e-03    72s
 120   1.32453016e+07  1.32393850e+07  3.21e-09 1.05e-08  8.17e-03    73s
 121   1.32451958e+07  1.32394938e+07  3.12e-09 1.06e-08  7.87e-03    73s
 122   1.32450617e+07  1.32395418e+07  3.00e-09 1.15e-08  7.62e-03    74s
 123   1.32447606e+07  1.32396552e+07  2.73e-09 8.09e-09  7.05e-03    74s
 124   1.32441511e+07  1.32400745e+07  2.21e-09 7.74e-09  5.63e-03    75s
 125   1.32437227e+07  1.32402560e+07  1.86e-09 1.09e-08  4.79e-03    75s
 126   1.32435567e+07  1.32405614e+07  1.71e-09 1.93e-08  4.14e-03    75s
 127   1.32432082e+07  1.32407766e+07  1.42e-09 7.33e-09  3.36e-03    76s
 128   1.32429348e+07  1.32409333e+07  1.18e-09 5.53e-09  2.76e-03    76s
 129   1.32428644e+07  1.32410474e+07  1.11e-09 2.91e-09  2.51e-03    77s
 130   1.32426499e+07  1.32411463e+07  9.19e-10 2.85e-09  2.08e-03    78s
 131   1.32425602e+07  1.32412588e+07  8.41e-10 1.99e-09  1.80e-03    78s
 132   1.32424470e+07  1.32413177e+07  7.38e-10 1.69e-09  1.56e-03    79s
 133   1.32423709e+07  1.32413485e+07  6.69e-10 1.73e-09  1.41e-03    79s
 134   1.32421369e+07  1.32414089e+07  4.60e-10 3.90e-09  1.01e-03    80s
 135   1.32420494e+07  1.32414353e+07  3.83e-10 1.51e-09  8.48e-04    81s
 136   1.32419652e+07  1.32414648e+07  3.09e-10 1.86e-09  6.91e-04    81s
 137   1.32418675e+07  1.32415046e+07  2.27e-10 5.68e-10  5.01e-04    82s
 138   1.32417820e+07  1.32415378e+07  1.53e-10 1.34e-09  3.37e-04    83s
 139   1.32417479e+07  1.32415438e+07  1.24e-10 6.77e-10  2.82e-04    83s
 140   1.32417450e+07  1.32415532e+07  1.22e-10 8.73e-10  2.65e-04    84s
 141   1.32416811e+07  1.32415743e+07  6.77e-11 5.24e-10  1.47e-04    85s
 142   1.32416626e+07  1.32415827e+07  5.24e-11 5.38e-10  1.10e-04    85s
 143   1.32416422e+07  1.32415866e+07  1.65e-08 3.49e-09  7.67e-05    86s
 144   1.32416225e+07  1.32415936e+07  3.01e-07 3.83e-08  3.98e-05    87s
 145   1.32416139e+07  1.32415945e+07  1.95e-07 3.14e-08  2.68e-05    87s
 146   1.32416109e+07  1.32415959e+07  4.56e-07 3.03e-08  2.07e-05    88s
 147   1.32416109e+07  1.32415959e+07  1.54e-06 3.00e-08  2.07e-05    88s
 148   1.32416109e+07  1.32415959e+07  1.72e-06 2.98e-08  2.07e-05    89s
 149   1.32416108e+07  1.32415959e+07  1.71e-06 9.09e-10  2.06e-05    90s
 150   1.32416108e+07  1.32415959e+07  1.70e-06 2.91e-10  2.05e-05    91s
 151   1.32416108e+07  1.32415959e+07  1.70e-06 5.82e-11  2.05e-05    92s
 152   1.32416108e+07  1.32415959e+07  1.70e-06 1.16e-10  2.05e-05    93s
 153   1.32416108e+07  1.32415959e+07  1.70e-06 7.28e-10  2.05e-05    94s
 154   1.32416107e+07  1.32415959e+07  1.69e-06 8.00e-11  2.04e-05    95s
 155   1.32416107e+07  1.32415959e+07  1.69e-06 8.29e-10  2.04e-05    96s
 156   1.32416107e+07  1.32415959e+07  1.69e-06 8.73e-10  2.04e-05    97s

Barrier performed 156 iterations in 96.87 seconds
Sub-optimal termination - objective 1.32416132e+07

Crossover log...

  176706 DPushes remaining with DInf 0.0000000e+00                97s
   45185 DPushes remaining with DInf 0.0000000e+00               100s
   36997 DPushes remaining with DInf 0.0000000e+00               105s
   31301 DPushes remaining with DInf 0.0000000e+00               110s
   25961 DPushes remaining with DInf 0.0000000e+00               115s
   21333 DPushes remaining with DInf 0.0000000e+00               120s
   17061 DPushes remaining with DInf 0.0000000e+00               125s
   12789 DPushes remaining with DInf 0.0000000e+00               130s
    6358 DPushes remaining with DInf 0.0000000e+00               135s
       0 DPushes remaining with DInf 1.5802559e-09               138s

  164641 PPushes remaining with PInf 9.9769889e-03               138s
   34617 PPushes remaining with PInf 1.1668177e-01               140s
     556 PPushes remaining with PInf 7.3128360e-03               146s
       0 PPushes remaining with PInf 1.8530154e-05               146s

  Push phase complete: Pinf 1.8530154e-05, Dinf 2.1045143e+03    146s

Iteration    Objective       Primal Inf.    Dual Inf.      Time
  340330    1.3241598e+07   0.000000e+00   2.104514e+03    146s
  340689    1.3241598e+07   0.000000e+00   0.000000e+00    148s

Solved with barrier
Solved in 340689 iterations and 148.03 seconds
Optimal objective  1.324159841e+07
